1272056
66,77,9,5,1,35,98,101,82,45,34,52,83,3,63,20,79,4,67,90,24,109,10,97,89,91,11,49,41,38,37,26,72,57,75,86,27,69,70,14,39,31,47,71,99,76,50,18,7,88,65,12,36,28,8,40,68,55,33,78,108,106,60,42,73,19,62,87,96,93,13,21,48,80,17,53,100,105,102,54,58,104,22,64,23,15,74,92,56,103,30,6,95,32,61,85,43,44,25,29,16,107,94,46,81,2,59,84,51